x = 18;
y = 15;
c = 78;
n = 52;

p = [94  83  53  75  53  33  80  68  27  100  55  52  12  97  31  60  23  100  32  85  96  99  96  43  72  10  21  74  79  10  36  80  52  33  15  39  61  92  14  74  39  74  70  50  32  43  43  39  22  71  76  90];
w = [5  8  8  3  8  3  3  9  3  8  10  3  7  9  8  2  2  6  9  6  2  2  9  8  9  6  5  1  10  7  3  10  4  10  1  10  3  9  2  7  2  3  9  7  7  2  7  5  2  7  6  8];
s = [14  1  5  11  14  2  8  14  4  4  2  9  4  5  9  2  3  11  6  12  3  9  5  12  4  4  6  10  12  12  11  8  12  5  13  12  8  1  13  7  8  3  11  1  5  3  4  1  3  4  13  9];
